
Gurobi 11.0.3 (linux64) logging started Fri Nov 22 21:19:27 2024

Set parameter LogFile to value "/home/yihong/Coding/OR_SUC/SUC_results_bigM100000_thread4/case24_ieee_rts_theta0.1_epsilon0.025_gurobi_seed940000_num_gen100_N_WDR100_load_scaling_factor1_exact_T12quadra_cost.txt"
Set parameter TimeLimit to value 3600
Gurobi Optimizer version 11.0.3 build v11.0.3rc0 (linux64 - "Ubuntu 20.04.6 LTS")

CPU model: AMD EPYC 7532 32-Core Processor, instruction set [SSE2|AVX|AVX2]
Thread count: 64 physical cores, 128 logical processors, using up to 4 threads

Optimize a model with 25823 rows, 15081 columns and 355770 nonzeros
Model fingerprint: 0x13217174
Model has 1200 quadratic constraints
Variable types: 13781 continuous, 1300 integer (1300 binary)
Coefficient statistics:
  Matrix range     [3e-04, 1e+05]
  QMatrix range    [2e-03, 8e-03]
  QLMatrix range   [2e-01, 6e+01]
  Objective range  [1e+00, 1e+00]
  Bounds range     [1e+00, 1e+00]
  RHS range        [1e+00, 1e+05]
Presolve removed 20967 rows and 6628 columns
Presolve time: 0.11s
Presolved: 4856 rows, 8453 columns, 31757 nonzeros
Presolved model has 1200 quadratic constraint(s)
Variable types: 7202 continuous, 1251 integer (1251 binary)

Root relaxation: objective 1.638855e+04, 3666 iterations, 0.06 seconds (0.08 work units)

    Nodes    |    Current Node    |     Objective Bounds      |     Work
 Expl Unexpl |  Obj  Depth IntInf | Incumbent    BestBd   Gap | It/Node Time

     0     0 16388.5453    0   15          - 16388.5453      -     -    0s
     0     0 176067.068    0  319          - 176067.068      -     -    0s
     0     0 309752.094    0  297          - 309752.094      -     -    0s
     0     0 309761.839    0  256          - 309761.839      -     -    0s
     0     0 310081.163    0  242          - 310081.163      -     -    0s
     0     0 310082.890    0  242          - 310082.890      -     -    0s
     0     0 310174.902    0  241          - 310174.902      -     -    0s
     0     0 310176.682    0  241          - 310176.682      -     -    0s
     0     2 310249.134    0  241          - 310249.134      -     -    1s
H  378   256                    310406.19015 310263.047  0.05%  19.3    1s
*  378   256             110    310406.19015 310263.047  0.05%  19.3    1s

Cutting planes:
  Gomory: 41
  Implied bound: 362
  MIR: 85
  Flow cover: 97
  RLT: 12
  PSD: 7

Explored 402 nodes (17702 simplex iterations) in 1.89 seconds (2.32 work units)
Thread count was 4 (of 128 available processors)

Solution count 2: 310406 310406 

Optimal solution found (tolerance 1.00e-03)
Warning: max constraint violation (2.4665e-07) exceeds tolerance
Best objective 3.104061901534e+05, best bound 3.102630469607e+05, gap 0.0461%
